1 1
1 3
1 5
1 7
1 10
2 10
2 7
2 5
2 3
2 1
3 1
3 3 
3 5
3 7
3 10
4 10
4 7
4 5
4 3
4 1
5 1
5 3 
5 5
5 7
5 10
6 10
6 7
6 5
6 3
6 1
7 1
7 3 
7 5
7 7
7 10
8 10
8 7
8 5
9 5
11 5 
13 5
13 3
13 1
14 1
15 1
16 2
17 3